data;
param nombreJob := 7;
param nombreRessource := 3;
param duree := 1 9 2 5 3 3 4 8 5 2 6 8 7 8;
param capaciteRessource := 1 7 2 11 3 12;
param besoinRessource : 1 2 3 :=
                    1   4 8 10
                    2   4 3 9
                    3   3 1 8
                    4   4 6 3
                    5   2 6 6
                    6   1 5 4
                    7   1 7 2;
end;

